p tw 30 151
e 0 2
e 0 4
e 0 7
e 0 9
e 0 11
e 0 12
e 0 15
e 0 16
e 0 22
e 0 24
e 0 25
e 0 26
e 0 29
e 1 6
e 1 7
e 1 8
e 1 14
e 1 17
e 1 22
e 1 24
e 1 27
e 1 29
e 2 16
e 2 21
e 2 24
e 2 26
e 2 27
e 2 28
e 3 4
e 3 5
e 3 8
e 3 14
e 3 19
e 3 20
e 3 21
e 3 22
e 3 25
e 3 26
e 4 10
e 4 17
e 4 19
e 4 20
e 4 21
e 4 22
e 4 24
e 4 25
e 4 26
e 4 27
e 4 29
e 5 8
e 5 9
e 5 12
e 5 17
e 5 18
e 5 20
e 5 22
e 5 23
e 5 26
e 5 28
e 6 10
e 6 12
e 6 17
e 6 24
e 6 27
e 6 28
e 6 29
e 7 8
e 7 16
e 7 17
e 7 18
e 7 19
e 7 26
e 8 11
e 8 20
e 8 21
e 8 22
e 8 25
e 9 11
e 9 12
e 9 20
e 9 21
e 9 22
e 9 23
e 9 25
e 9 27
e 10 19
e 10 21
e 10 22
e 10 24
e 11 14
e 11 16
e 11 17
e 12 18
e 12 22
e 12 23
e 12 25
e 12 26
e 12 27
e 13 15
e 13 18
e 13 21
e 13 27
e 14 16
e 14 19
e 14 22
e 14 26
e 15 16
e 15 17
e 15 18
e 15 20
e 15 21
e 15 25
e 15 26
e 16 17
e 16 18
e 16 21
e 16 25
e 16 27
e 17 21
e 17 22
e 17 24
e 17 25
e 17 26
e 17 27
e 17 28
e 18 21
e 18 23
e 18 25
e 18 26
e 18 27
e 19 20
e 19 23
e 20 29
e 21 22
e 21 23
e 21 25
e 21 26
e 21 27
e 22 24
e 22 25
e 22 26
e 22 28
e 23 24
e 23 28
e 24 27
e 25 27
e 25 29
e 26 27
e 26 28
e 27 28
e 27 29
